1	5	2	15	6	18	4	4	18	14	5	13	8	19	7	19	7	17	14	2
2	9	8	5	11	12	5	20	7	17	17	19	2	4	14	19	8	18	6	19
11	13	6	7	11	17	11	19	7	4	15	4	5	16	15	4	9	8	15	5
3	9	11	3	5	18	9	7	1	20	10	14	1	5	13	18	2	20	13	8
17	14	9	10	2	16	12	13	11	11	16	19	10	12	3	15	1	1	8	9
11	7	11	5	10	15	20	11	5	17	18	10	14	4	9	7	11	18	11	15
4	6	20	5	16	20	13	13	8	19	16	2	7	19	13	17	4	16	18	14
4	19	7	9	6	18	4	10	2	9	14	17	7	14	2	13	6	19	6	9
13	9	11	5	14	2	14	15	10	11	9	4	20	20	14	15	19	5	10	19
